87
34
104
144
274
320
393
504
584
664
800
830
856
1234
1554
1662
1834
1850
1882
1986
2076
2218
2432
2600
2633
2705
2724
2768
2897
3152
3196
3436
3584
3922
4208
4210
4328
4378
4454
4716
4864
4874
5100
5120
5198
5316
5336
5356
5514
5694
5803
6006
6090
6200
6416
6518
6608
6763
6918
6944
6955
7136
7176
7216
7296
7424
7450
7464
7644
7718
7730
7732
7830
7928
8144
8275
8336
8402
8480
8481
8718
8892
8918
9042
9326
9427
9664
9832
